24
Anthracene, B3PW91/6-31G(d,p) geometry, https://www.rsc.org/suppdata/d3/cp/d3cp06005e/d3cp06005e1.pdf
C -6.199447 -0.542799 -0.014381
C -4.831229 -0.542476 -0.009470
C -4.097771 0.681959 -0.010199
C -4.828481 1.924957 -0.016164
C -6.255056 1.879574 -0.021145
C -6.920761 0.684216 -0.020302
C -2.699644 0.714392 -0.005325
C -4.120173 3.130832 -0.016906
C -2.722046 3.163266 -0.012030
C -1.991335 1.920267 -0.006083
C -0.564760 1.965648 -0.001155
H -0.015569 1.027321 0.003304
C 0.100945 3.161005 -0.002053
C -0.620369 4.388022 -0.007897
C -1.988586 4.387700 -0.012733
H -2.148209 -0.223636 -0.000810
H -6.744540 -1.482484 -0.013797
H -4.278449 -1.478693 -0.004934
H -6.804246 2.817902 -0.025640
H -8.006923 0.664945 -0.024153
H -4.671599 4.068865 -0.021392
H 1.187108 3.180279 0.001725
H -0.075280 5.327709 -0.008517
H -2.541363 5.323919 -0.017201
